Problem:    
Rows:       58
Columns:    64
Non-zeros:  154
Status:     OPTIMAL
Objective:  obj = 3.5 (MAXimum)

   No.   Row name   St   Activity     Lower bound   Upper bound    Marginal
------ ------------ -- ------------- ------------- ------------- -------------
     1 r.4          NU             0                           0         < eps
     2 r.5          NU             0                           0         < eps
     3 r.6          B             -2                           0 
     4 r.7          B             -4                           0 
     5 r.8          NS             0             0             =          0.25 
     6 r.9          NU             0                           0         < eps
     7 r.10         B              0                           0 
     8 r.11         B             -1                           0 
     9 r.12         NU             0                           0         < eps
    10 r.13         NU             0                           0          0.75 
    11 r.14         B             -1                           0 
    12 r.15         B             -2                           0 
    13 r.16         NU             0                           0          0.25 
    14 r.17         NU             0                           0          0.75 
    15 r.18         B              0                           0 
    16 r.19         NS             0             0             =          0.75 
    17 r.20         NU             0                           0          0.25 
    18 r.21         NU             0                           0         < eps
    19 r.22         NU             0                           0          0.25 
    20 r.23         NU             0                           0          0.75 
    21 r.24         B              0                           0 
    22 r.25         NU             0                           0         < eps
    23 r.26         B              0                           0 
    24 r.27         NU             0                           0         < eps
    25 r.28         B             -2                           0 
    26 r.29         B             -2                           0 
    27 r.30         B             -2                           0 
    28 r.31         B             -5                           0 
    29 r.32         NU             0                           0          0.25 
    30 r.33         NU             0                           0         < eps
    31 r.34         NU             0                           0         < eps
    32 r.35         NU             0                           0         < eps
    33 r.36         NU             0                           0          0.25 
    34 r.37         NU             0                           0         < eps
    35 r.38         NU             0                           0         < eps
    36 r.39         B             -1                           0 
    37 r.40         NU             0                           0         < eps
    38 r.41         NU             0                           0          0.75 
    39 r.42         NU             0                           0         < eps
    40 r.43         NU             0                           0         < eps
    41 r.44         B              0                           0 
    42 r.45         B             -1                           0 
    43 r.46         NS             1             1             =          0.75 
    44 r.47         NS             1             1             =         < eps
    45 r.48         NS             1             1             =         < eps
    46 r.49         NS             1             1             =          0.25 
    47 r.50         NS             1             1             =          0.75 
    48 r.51         NS             1             1             =          0.75 
    49 r.52         NS             1             1             =          0.75 
    50 r.53         NS             1             1             =          0.25 
    51 r.54         NS             1             1             =         < eps
    52 r.55         NS             1             1             =         < eps
    53 r.56         NS             1             1             =         < eps
    54 r.57         NS             1             1             =         < eps
    55 r.58         NS             1             1             =         < eps
    56 r.59         NS             1             1             =         < eps
    57 r.60         NS             1             1             =         < eps
    58 r.61         NS             1             1             =         < eps

   No. Column name  St   Activity     Lower bound   Upper bound    Marginal
------ ------------ -- ------------- ------------- ------------- -------------
     1 V(0,1)       B              2                             
     2 V(0,2)       B              4                             
     3 V(1201,1)    B              2                             
     4 F(1201,1)    B              1             0               
     5 F(1201,2)    NL             0             0                       < eps
     6 V(1202,1)    B              1                             
     7 V(1201,2)    B              0                             
     8 V(1202,2)    B              0                             
     9 F(1202,1)    B              1             0               
    10 F(1202,2)    B              0             0               
    11 V(1,1)       B              0                             
    12 V(1,2)       B              1                             
    13 F(1,1)       B              1             0               
    14 F(1,2)       B              0             0               
    15 V(3,2)       B              1                             
    16 V(1302,1)    NF             0                                     < eps
    17 F(1302,1)    NL             0             0                       < eps
    18 F(1302,2)    B              1             0               
    19 V(1303,1)    NF             0                                     < eps
    20 V(1302,2)    B              0                             
    21 V(1303,2)    NF             0                                     < eps
    22 V(8,1)       B              2                             
    23 F(8,1)       NL             0             0                       -0.75 
    24 F(8,2)       B              1             0               
    25 V(2,1)       B              2                             
    26 V(8,2)       B              1                             
    27 V(2,2)       B              0                             
    28 V(1204,1)    B              0                             
    29 F(1204,1)    NL             0             0                       < eps
    30 F(1204,2)    B              1             0               
    31 V(3,1)       B              1                             
    32 V(1204,2)    NF             0                                     < eps
    33 V(1101,1)    B              2                             
    34 F(1101,1)    NL             0             0                        -0.5 
    35 F(1101,2)    B              1             0               
    36 V(1102,1)    B              2                             
    37 V(1101,2)    B              3                             
    38 V(1102,2)    B              2                             
    39 F(2,1)       NL             0             0                       < eps
    40 F(2,2)       B              1             0               
    41 F(3,1)       B              1             0               
    42 F(3,2)       NL             0             0                       -0.25 
    43 F(0,1)       NL             0             0                        -0.5 
    44 F(0,2)       B              1             0               
    45 V(1301,1)    NF             0                                     < eps
    46 V(1301,2)    B              1                             
    47 F(1301,1)    NL             0             0                       < eps
    48 F(1301,2)    B              1             0               
    49 V(1304,1)    NF             0                                     < eps
    50 F(1304,1)    NL             0             0                       < eps
    51 F(1304,2)    B              1             0               
    52 V(1304,2)    NF             0                                     < eps
    53 F(1303,1)    NL             0             0                       < eps
    54 F(1303,2)    B              1             0               
    55 V(1103,1)    B              2                             
    56 F(1103,1)    B              1             0               
    57 F(1103,2)    NL             0             0                       -0.25 
    58 V(1103,2)    B              1                             
    59 F(1102,1)    NL             0             0                        -0.5 
    60 F(1102,2)    B              1             0               
    61 V(1203,1)    B              0                             
    62 F(1203,1)    NL             0             0                       < eps
    63 F(1203,2)    B              1             0               
    64 V(1203,2)    NF             0                                     < eps

Karush-Kuhn-Tucker optimality conditions:

KKT.PE: max.abs.err = 0.00e+00 on row 0
        max.rel.err = 0.00e+00 on row 0
        High quality

KKT.PB: max.abs.err = 0.00e+00 on row 0
        max.rel.err = 0.00e+00 on row 0
        High quality

KKT.DE: max.abs.err = 0.00e+00 on column 0
        max.rel.err = 0.00e+00 on column 0
        High quality

KKT.DB: max.abs.err = 0.00e+00 on row 0
        max.rel.err = 0.00e+00 on row 0
        High quality

End of output
